\ENCODING=ISO-8859-1
\Problem name: instances

Maximize
 obj:
Subject To
 c1: 19 x1 + 52 x2 - 28 x3 + 69 x4 + 47 x5 + 41 x6 + 23 x7 + 58 x8 + 71 x9
     + 60 x10 <= 144
 c2: 55 x1 + 19 x2 + 34 x3 + 34 x4 + 6 x5 + x6 + 46 x7 - 71 x8 + 77 x9 + 27 x10
     <= 197
 c3: 99 x2 + 80 x3 + 52 x4 + 17 x5 + 83 x6 + x7 - 75 x8 + x9 + 16 x10 <= 109
 c4: 16 x1 + 98 x2 + 92 x3 + 100 x4 + 6 x5 + 87 x6 + 74 x7 + 7 x8 + 19 x9
     + 48 x10 <= 477
 c5: 15 x3 + 19 x4 - 67 x6 + 57 x7 + 84 x8 + 72 x9 + 33 x10 <= 181
Bounds
      x1 >= 0
      x2 >= 0
      x3 >= 0
      x4 >= 0
      x5 >= 0
      x6 >= 0
      x7 >= 0
      x8 >= 0
      x9 >= 0
      x10 >= 0
Generals
 x1  x2  x3  x4  x5  x6  x7  x8  x9  x10 
End
